\* Pricing_problem *\
Minimize
OBJ: - 0.166666666667 M_0,1 - 0.333333333333 M_0,2 - 0.5 M_1,0
 + 4.33333333333 M_1,1 - 0.333333333333 M_1,2 - 0.5 M_2,0
 - 0.166666666667 M_2,1 - 0.333333333333 M_2,2 - 0.5 M_3,0
 + 3.33333333333 M_3,1 - 0.166666666667 M_3,2 - 0.5 M_4,0
 - 0.333333333333 M_4,1 - 0.166666666667 M_4,2 - 0.5 M_5,0
 - 0.166666666667 M_5,1 - 0.333333333333 M_5,2
Subject To
LESS_CAP_0: M_1,0 + M_2,0 + M_3,0 + M_4,0 + M_5,0 <= 1
LESS_CAP_1: M_0,1 + M_1,1 + M_2,1 + M_3,1 + M_4,1 + M_5,1 <= 3
LESS_CAP_2: M_0,2 + M_1,2 + M_2,2 + M_3,2 + M_4,2 + M_5,2 <= 2
LESS_ONE_0: M_0,1 + M_0,2 <= 1
LESS_ONE_1: M_1,0 + M_1,1 + M_1,2 <= 1
LESS_ONE_2: M_2,0 + M_2,1 + M_2,2 <= 1
LESS_ONE_3: M_3,0 + M_3,1 + M_3,2 <= 1
LESS_ONE_4: M_4,0 + M_4,1 + M_4,2 <= 1
LESS_ONE_5: M_5,0 + M_5,1 + M_5,2 <= 1
STAB_0_1: 3 M_0,1 + M_1,1 + M_2,1 + M_3,1 + M_4,1 + M_5,1 >= 3
STAB_0_2: 2 M_0,1 + 2 M_0,2 + M_1,2 >= 2
STAB_1_0: M_1,0 + M_1,1 + M_1,2 + M_2,0 + M_3,0 + M_4,0 + M_5,0 >= 1
STAB_1_1: 3 M_1,1 + M_2,1 + M_3,1 + M_5,1 >= 3
STAB_1_2: M_0,2 + 2 M_1,1 + 2 M_1,2 >= 2
STAB_2_0: M_1,0 + M_2,0 + M_2,1 + M_2,2 + M_3,0 + M_4,0 + M_5,0 >= 1
STAB_2_1: 3 M_2,1 + M_5,1 >= 3
STAB_2_2: M_0,2 + M_1,2 + 2 M_2,1 + 2 M_2,2 + M_3,2 + M_4,2 + M_5,2 >= 2
STAB_3_0: M_3,0 + M_3,1 + M_3,2 >= 1
STAB_3_1: M_1,1 + M_2,1 + 3 M_3,1 + 3 M_3,2 + M_5,1 >= 3
STAB_3_2: M_0,2 + M_1,2 + M_2,2 + 2 M_3,2 + M_4,2 + M_5,2 >= 2
STAB_4_0: M_3,0 + M_4,0 + M_4,1 + M_4,2 + M_5,0 >= 1
STAB_4_1: M_0,1 + M_1,1 + M_2,1 + M_3,1 + 3 M_4,1 + 3 M_4,2 + M_5,1 >= 3
STAB_4_2: M_0,2 + M_1,2 + 2 M_4,2 + M_5,2 >= 2
STAB_5_0: M_3,0 + M_4,0 + M_5,0 + M_5,1 + M_5,2 >= 1
STAB_5_1: M_2,1 + 3 M_5,1 >= 3
STAB_5_2: M_0,2 + M_1,2 + M_4,2 + 2 M_5,1 + 2 M_5,2 >= 2
Bounds
 __dummy = 0
Binaries
M_0,1
M_0,2
M_1,0
M_1,1
M_1,2
M_2,0
M_2,1
M_2,2
M_3,0
M_3,1
M_3,2
M_4,0
M_4,1
M_4,2
M_5,0
M_5,1
M_5,2
End
